(set-logic ALL)
(declare-const BAV1 Bool)
(declare-const BAV2 Bool)
(declare-const GEN2 Int)
(declare-const GEN1 Int)
(declare-fun i () Int)
(assert (ite (= i GEN1) false true))
(push 1)
(assert (= i GEN2))
(assert (= BAV1 (= i GEN1)))
(assert (= BAV2 (= i GEN2)))
(check-sat)
(get-model)